words_hard_train/5823.qaiger
aag 104 16 0 1 88
2
4
8
12
16
20
24
36
44
56
72
88
132
150
176
184
208
6 3 5
10 6 9
14 10 13
18 14 17
22 18 21
26 23 24
28 22 25
30 27 29
32 2 4
34 33 7
38 35 37
40 34 36
42 39 41
46 44 2
48 42 46
50 49 41
52 7 8
54 53 11
58 55 57
60 54 56
62 59 61
64 51 62
66 65 61
68 11 12
70 69 15
74 71 73
76 70 72
78 75 77
80 67 78
82 81 77
84 15 16
86 85 19
90 87 89
92 86 88
94 91 93
96 82 95
98 83 94
100 97 99
102 31 100
104 30 101
106 103 105
108 66 79
110 109 81
112 19 20
114 113 23
116 111 114
118 110 115
120 117 119
122 43 47
124 123 49
126 125 71
128 124 70
130 127 129
134 133 2
136 55 45
138 54 44
140 137 139
142 134 141
144 132 3
146 144 140
148 143 147
152 34 151
154 35 150
156 153 155
158 149 157
160 130 158
162 121 160
164 50 63
166 165 65
168 167 87
170 166 86
172 169 171
174 162 172
178 114 177
180 115 176
182 179 181
186 28 185
188 29 184
190 187 189
192 182 190
194 183 191
196 193 195
198 99 93
200 197 199
202 196 198
204 201 203
206 174 204
208 107 206
i0 2 y1[0]
i1 2 y1[1]
i2 2 y1[2]
i3 2 y1[3]
i4 2 y1[4]
i5 2 y1[5]
i6 2 y1[6]
i7 1 x1[3]
i8 1 x1[2]
i9 1 x1[4]
i10 1 x1[5]
i11 1 x1[6]
i12 1 x1[0]
i13 1 x1[1]
i14 1 x1[7]
i15 2 y1[7]
o0 bool[0]
c
simplified
  ==
    subtract
      1 x1
      << 2
        2 y1
    subtract
      2 y1
      1
