words_hard_train/5823.qaiger.qdimacs
p cnf 104 265
a 66 36 75 44 18 22 88 28 0
e 1 2 3 4 5 6 7 8 9 10 11 12 13 14 15 16 17 19 20 21 23 24 25 26 27 29 30 31 32 33 34 35 37 38 39 40 41 42 43 45 46 47 48 49 50 51 52 53 54 55 56 57 58 59 60 61 62 63 64 65 67 68 69 70 71 72 73 74 76 77 78 79 80 81 82 83 84 85 86 87 89 90 91 92 93 94 95 96 97 98 99 100 101 102 103 104 0
1 2 3 0
-1 -3 0
-2 -3 0
-3 4 5 0
3 -5 0
-4 -5 0
-5 6 7 0
5 -7 0
-6 -7 0
-7 8 9 0
7 -9 0
-8 -9 0
-9 10 11 0
9 -11 0
-10 -11 0
11 -12 13 0
-11 -13 0
12 -13 0
-11 12 14 0
11 -14 0
-12 -14 0
13 14 15 0
-13 -15 0
-14 -15 0
-1 -2 16 0
1 -16 0
2 -16 0
16 3 17 0
-16 -17 0
-3 -17 0
17 18 19 0
-17 -19 0
-18 -19 0
-17 -18 20 0
17 -20 0
18 -20 0
19 20 21 0
-19 -21 0
-20 -21 0
-22 -1 23 0
22 -23 0
1 -23 0
-21 -23 24 0
21 -24 0
23 -24 0
24 20 25 0
-24 -25 0
-20 -25 0
3 -4 26 0
-3 -26 0
4 -26 0
26 5 27 0
-26 -27 0
-5 -27 0
27 28 29 0
-27 -29 0
-28 -29 0
-27 -28 30 0
27 -30 0
28 -30 0
29 30 31 0
-29 -31 0
-30 -31 0
25 -31 32 0
-25 -32 0
31 -32 0
32 30 33 0
-32 -33 0
-30 -33 0
5 -6 34 0
-5 -34 0
6 -34 0
34 7 35 0
-34 -35 0
-7 -35 0
35 36 37 0
-35 -37 0
-36 -37 0
-35 -36 38 0
35 -38 0
36 -38 0
37 38 39 0
-37 -39 0
-38 -39 0
33 -39 40 0
-33 -40 0
39 -40 0
40 38 41 0
-40 -41 0
-38 -41 0
7 -8 42 0
-7 -42 0
8 -42 0
42 9 43 0
-42 -43 0
-9 -43 0
43 44 45 0
-43 -45 0
-44 -45 0
-43 -44 46 0
43 -46 0
44 -46 0
45 46 47 0
-45 -47 0
-46 -47 0
-41 47 48 0
41 -48 0
-47 -48 0
41 -47 49 0
-41 -49 0
47 -49 0
48 49 50 0
-48 -50 0
-49 -50 0
15 -50 51 0
-15 -51 0
50 -51 0
-15 50 52 0
15 -52 0
-50 -52 0
51 52 53 0
-51 -53 0
-52 -53 0
-33 39 54 0
33 -54 0
-39 -54 0
54 40 55 0
-54 -55 0
-40 -55 0
9 -10 56 0
-9 -56 0
10 -56 0
56 11 57 0
-56 -57 0
-11 -57 0
55 -57 58 0
-55 -58 0
57 -58 0
-55 57 59 0
55 -59 0
-57 -59 0
58 59 60 0
-58 -60 0
-59 -60 0
21 23 61 0
-21 -61 0
-23 -61 0
61 24 62 0
-61 -62 0
-24 -62 0
62 35 63 0
-62 -63 0
-35 -63 0
-62 -35 64 0
62 -64 0
35 -64 0
63 64 65 0
-63 -65 0
-64 -65 0
66 -1 67 0
-66 -67 0
1 -67 0
27 22 68 0
-27 -68 0
-22 -68 0
-27 -22 69 0
27 -69 0
22 -69 0
68 69 70 0
-68 -70 0
-69 -70 0
-67 70 71 0
67 -71 0
-70 -71 0
-66 1 72 0
66 -72 0
-1 -72 0
-72 -70 73 0
72 -73 0
70 -73 0
71 73 74 0
-71 -74 0
-73 -74 0
-17 75 76 0
17 -76 0
-75 -76 0
17 -75 77 0
-17 -77 0
75 -77 0
76 77 78 0
-76 -78 0
-77 -78 0
74 78 79 0
-74 -79 0
-78 -79 0
-65 -79 80 0
65 -80 0
79 -80 0
60 -80 81 0
-60 -81 0
80 -81 0
-25 31 82 0
25 -82 0
-31 -82 0
82 32 83 0
-82 -83 0
-32 -83 0
83 43 84 0
-83 -84 0
-43 -84 0
-83 -43 85 0
83 -85 0
43 -85 0
84 85 86 0
-84 -86 0
-85 -86 0
-81 -86 87 0
81 -87 0
86 -87 0
-57 88 89 0
57 -89 0
-88 -89 0
57 -88 90 0
-57 -90 0
88 -90 0
89 90 91 0
-89 -91 0
-90 -91 0
-14 92 93 0
14 -93 0
-92 -93 0
14 -92 94 0
-14 -94 0
92 -94 0
93 94 95 0
-93 -95 0
-94 -95 0
-91 -95 96 0
91 -96 0
95 -96 0
91 95 97 0
-91 -97 0
-95 -97 0
96 97 98 0
-96 -98 0
-97 -98 0
49 46 99 0
-49 -99 0
-46 -99 0
98 99 100 0
-98 -100 0
-99 -100 0
-98 -99 101 0
98 -101 0
99 -101 0
100 101 102 0
-100 -102 0
-101 -102 0
-87 -102 103 0
87 -103 0
102 -103 0
53 -103 104 0
-53 -104 0
103 -104 0
104 0
